31802.94,41.07,45.23
29173.78,44.77,49.31
30525.72,42.79,47.12
28891.05,45.21,49.79
26856.67,48.64,53.56
30577.88,42.72,47.04
25126.77,51.98,57.25
30614.26,42.67,46.99
28397.67,46.0,50.65
34549.22,37.81,41.64
31435.15,41.55,45.76
32401.67,40.31,44.39
29791.32,43.84,48.28
31054.04,42.06,46.32
28651.61,45.59,50.2
29295.74,44.59,49.1
29992.1,43.55,47.96
26641.64,49.03,53.99
26494.56,49.3,54.29
24018.95,54.38,59.89
